c *********************************
c * Circuit generated by BenCGen
c *
c * Parity_402
c *
c * Ports with 1 gate(s): 1
c * Ports with 2 gate(s): 402
c * Total gates: 403
c *********************************
p cnf 805 1609
1 405 0
-1 -405 0
1 -404 0
405 -404 0
-1 -405 404 0
1 2 -406 0
-1 2 406 0
1 -2 406 0
-1 -2 -406 0
3 4 -407 0
-3 4 407 0
3 -4 407 0
-3 -4 -407 0
5 6 -408 0
-5 6 408 0
5 -6 408 0
-5 -6 -408 0
7 8 -409 0
-7 8 409 0
7 -8 409 0
-7 -8 -409 0
9 10 -410 0
-9 10 410 0
9 -10 410 0
-9 -10 -410 0
11 12 -411 0
-11 12 411 0
11 -12 411 0
-11 -12 -411 0
13 14 -412 0
-13 14 412 0
13 -14 412 0
-13 -14 -412 0
15 16 -413 0
-15 16 413 0
15 -16 413 0
-15 -16 -413 0
17 18 -414 0
-17 18 414 0
17 -18 414 0
-17 -18 -414 0
19 20 -415 0
-19 20 415 0
19 -20 415 0
-19 -20 -415 0
21 22 -416 0
-21 22 416 0
21 -22 416 0
-21 -22 -416 0
23 24 -417 0
-23 24 417 0
23 -24 417 0
-23 -24 -417 0
25 26 -418 0
-25 26 418 0
25 -26 418 0
-25 -26 -418 0
27 28 -419 0
-27 28 419 0
27 -28 419 0
-27 -28 -419 0
29 30 -420 0
-29 30 420 0
29 -30 420 0
-29 -30 -420 0
31 32 -421 0
-31 32 421 0
31 -32 421 0
-31 -32 -421 0
33 34 -422 0
-33 34 422 0
33 -34 422 0
-33 -34 -422 0
35 36 -423 0
-35 36 423 0
35 -36 423 0
-35 -36 -423 0
37 38 -424 0
-37 38 424 0
37 -38 424 0
-37 -38 -424 0
39 40 -425 0
-39 40 425 0
39 -40 425 0
-39 -40 -425 0
41 42 -426 0
-41 42 426 0
41 -42 426 0
-41 -42 -426 0
43 44 -427 0
-43 44 427 0
43 -44 427 0
-43 -44 -427 0
45 46 -428 0
-45 46 428 0
45 -46 428 0
-45 -46 -428 0
47 48 -429 0
-47 48 429 0
47 -48 429 0
-47 -48 -429 0
49 50 -430 0
-49 50 430 0
49 -50 430 0
-49 -50 -430 0
51 52 -431 0
-51 52 431 0
51 -52 431 0
-51 -52 -431 0
53 54 -432 0
-53 54 432 0
53 -54 432 0
-53 -54 -432 0
55 56 -433 0
-55 56 433 0
55 -56 433 0
-55 -56 -433 0
57 58 -434 0
-57 58 434 0
57 -58 434 0
-57 -58 -434 0
59 60 -435 0
-59 60 435 0
59 -60 435 0
-59 -60 -435 0
61 62 -436 0
-61 62 436 0
61 -62 436 0
-61 -62 -436 0
63 64 -437 0
-63 64 437 0
63 -64 437 0
-63 -64 -437 0
65 66 -438 0
-65 66 438 0
65 -66 438 0
-65 -66 -438 0
67 68 -439 0
-67 68 439 0
67 -68 439 0
-67 -68 -439 0
69 70 -440 0
-69 70 440 0
69 -70 440 0
-69 -70 -440 0
71 72 -441 0
-71 72 441 0
71 -72 441 0
-71 -72 -441 0
73 74 -442 0
-73 74 442 0
73 -74 442 0
-73 -74 -442 0
75 76 -443 0
-75 76 443 0
75 -76 443 0
-75 -76 -443 0
77 78 -444 0
-77 78 444 0
77 -78 444 0
-77 -78 -444 0
79 80 -445 0
-79 80 445 0
79 -80 445 0
-79 -80 -445 0
81 82 -446 0
-81 82 446 0
81 -82 446 0
-81 -82 -446 0
83 84 -447 0
-83 84 447 0
83 -84 447 0
-83 -84 -447 0
85 86 -448 0
-85 86 448 0
85 -86 448 0
-85 -86 -448 0
87 88 -449 0
-87 88 449 0
87 -88 449 0
-87 -88 -449 0
89 90 -450 0
-89 90 450 0
89 -90 450 0
-89 -90 -450 0
91 92 -451 0
-91 92 451 0
91 -92 451 0
-91 -92 -451 0
93 94 -452 0
-93 94 452 0
93 -94 452 0
-93 -94 -452 0
95 96 -453 0
-95 96 453 0
95 -96 453 0
-95 -96 -453 0
97 98 -454 0
-97 98 454 0
97 -98 454 0
-97 -98 -454 0
99 100 -455 0
-99 100 455 0
99 -100 455 0
-99 -100 -455 0
101 102 -456 0
-101 102 456 0
101 -102 456 0
-101 -102 -456 0
103 104 -457 0
-103 104 457 0
103 -104 457 0
-103 -104 -457 0
105 106 -458 0
-105 106 458 0
105 -106 458 0
-105 -106 -458 0
107 108 -459 0
-107 108 459 0
107 -108 459 0
-107 -108 -459 0
109 110 -460 0
-109 110 460 0
109 -110 460 0
-109 -110 -460 0
111 112 -461 0
-111 112 461 0
111 -112 461 0
-111 -112 -461 0
113 114 -462 0
-113 114 462 0
113 -114 462 0
-113 -114 -462 0
115 116 -463 0
-115 116 463 0
115 -116 463 0
-115 -116 -463 0
117 118 -464 0
-117 118 464 0
117 -118 464 0
-117 -118 -464 0
119 120 -465 0
-119 120 465 0
119 -120 465 0
-119 -120 -465 0
121 122 -466 0
-121 122 466 0
121 -122 466 0
-121 -122 -466 0
123 124 -467 0
-123 124 467 0
123 -124 467 0
-123 -124 -467 0
125 126 -468 0
-125 126 468 0
125 -126 468 0
-125 -126 -468 0
127 128 -469 0
-127 128 469 0
127 -128 469 0
-127 -128 -469 0
129 130 -470 0
-129 130 470 0
129 -130 470 0
-129 -130 -470 0
131 132 -471 0
-131 132 471 0
131 -132 471 0
-131 -132 -471 0
133 134 -472 0
-133 134 472 0
133 -134 472 0
-133 -134 -472 0
135 136 -473 0
-135 136 473 0
135 -136 473 0
-135 -136 -473 0
137 138 -474 0
-137 138 474 0
137 -138 474 0
-137 -138 -474 0
139 140 -475 0
-139 140 475 0
139 -140 475 0
-139 -140 -475 0
141 142 -476 0
-141 142 476 0
141 -142 476 0
-141 -142 -476 0
143 144 -477 0
-143 144 477 0
143 -144 477 0
-143 -144 -477 0
145 146 -478 0
-145 146 478 0
145 -146 478 0
-145 -146 -478 0
147 148 -479 0
-147 148 479 0
147 -148 479 0
-147 -148 -479 0
149 150 -480 0
-149 150 480 0
149 -150 480 0
-149 -150 -480 0
151 152 -481 0
-151 152 481 0
151 -152 481 0
-151 -152 -481 0
153 154 -482 0
-153 154 482 0
153 -154 482 0
-153 -154 -482 0
155 156 -483 0
-155 156 483 0
155 -156 483 0
-155 -156 -483 0
157 158 -484 0
-157 158 484 0
157 -158 484 0
-157 -158 -484 0
159 160 -485 0
-159 160 485 0
159 -160 485 0
-159 -160 -485 0
161 162 -486 0
-161 162 486 0
161 -162 486 0
-161 -162 -486 0
163 164 -487 0
-163 164 487 0
163 -164 487 0
-163 -164 -487 0
165 166 -488 0
-165 166 488 0
165 -166 488 0
-165 -166 -488 0
167 168 -489 0
-167 168 489 0
167 -168 489 0
-167 -168 -489 0
169 170 -490 0
-169 170 490 0
169 -170 490 0
-169 -170 -490 0
171 172 -491 0
-171 172 491 0
171 -172 491 0
-171 -172 -491 0
173 174 -492 0
-173 174 492 0
173 -174 492 0
-173 -174 -492 0
175 176 -493 0
-175 176 493 0
175 -176 493 0
-175 -176 -493 0
177 178 -494 0
-177 178 494 0
177 -178 494 0
-177 -178 -494 0
179 180 -495 0
-179 180 495 0
179 -180 495 0
-179 -180 -495 0
181 182 -496 0
-181 182 496 0
181 -182 496 0
-181 -182 -496 0
183 184 -497 0
-183 184 497 0
183 -184 497 0
-183 -184 -497 0
185 186 -498 0
-185 186 498 0
185 -186 498 0
-185 -186 -498 0
187 188 -499 0
-187 188 499 0
187 -188 499 0
-187 -188 -499 0
189 190 -500 0
-189 190 500 0
189 -190 500 0
-189 -190 -500 0
191 192 -501 0
-191 192 501 0
191 -192 501 0
-191 -192 -501 0
193 194 -502 0
-193 194 502 0
193 -194 502 0
-193 -194 -502 0
195 196 -503 0
-195 196 503 0
195 -196 503 0
-195 -196 -503 0
197 198 -504 0
-197 198 504 0
197 -198 504 0
-197 -198 -504 0
199 200 -505 0
-199 200 505 0
199 -200 505 0
-199 -200 -505 0
201 202 -506 0
-201 202 506 0
201 -202 506 0
-201 -202 -506 0
203 204 -507 0
-203 204 507 0
203 -204 507 0
-203 -204 -507 0
205 206 -508 0
-205 206 508 0
205 -206 508 0
-205 -206 -508 0
207 208 -509 0
-207 208 509 0
207 -208 509 0
-207 -208 -509 0
209 210 -510 0
-209 210 510 0
209 -210 510 0
-209 -210 -510 0
211 212 -511 0
-211 212 511 0
211 -212 511 0
-211 -212 -511 0
213 214 -512 0
-213 214 512 0
213 -214 512 0
-213 -214 -512 0
215 216 -513 0
-215 216 513 0
215 -216 513 0
-215 -216 -513 0
217 218 -514 0
-217 218 514 0
217 -218 514 0
-217 -218 -514 0
219 220 -515 0
-219 220 515 0
219 -220 515 0
-219 -220 -515 0
221 222 -516 0
-221 222 516 0
221 -222 516 0
-221 -222 -516 0
223 224 -517 0
-223 224 517 0
223 -224 517 0
-223 -224 -517 0
225 226 -518 0
-225 226 518 0
225 -226 518 0
-225 -226 -518 0
227 228 -519 0
-227 228 519 0
227 -228 519 0
-227 -228 -519 0
229 230 -520 0
-229 230 520 0
229 -230 520 0
-229 -230 -520 0
231 232 -521 0
-231 232 521 0
231 -232 521 0
-231 -232 -521 0
233 234 -522 0
-233 234 522 0
233 -234 522 0
-233 -234 -522 0
235 236 -523 0
-235 236 523 0
235 -236 523 0
-235 -236 -523 0
237 238 -524 0
-237 238 524 0
237 -238 524 0
-237 -238 -524 0
239 240 -525 0
-239 240 525 0
239 -240 525 0
-239 -240 -525 0
241 242 -526 0
-241 242 526 0
241 -242 526 0
-241 -242 -526 0
243 244 -527 0
-243 244 527 0
243 -244 527 0
-243 -244 -527 0
245 246 -528 0
-245 246 528 0
245 -246 528 0
-245 -246 -528 0
247 248 -529 0
-247 248 529 0
247 -248 529 0
-247 -248 -529 0
249 250 -530 0
-249 250 530 0
249 -250 530 0
-249 -250 -530 0
251 252 -531 0
-251 252 531 0
251 -252 531 0
-251 -252 -531 0
253 254 -532 0
-253 254 532 0
253 -254 532 0
-253 -254 -532 0
255 256 -533 0
-255 256 533 0
255 -256 533 0
-255 -256 -533 0
257 258 -534 0
-257 258 534 0
257 -258 534 0
-257 -258 -534 0
259 260 -535 0
-259 260 535 0
259 -260 535 0
-259 -260 -535 0
261 262 -536 0
-261 262 536 0
261 -262 536 0
-261 -262 -536 0
263 264 -537 0
-263 264 537 0
263 -264 537 0
-263 -264 -537 0
265 266 -538 0
-265 266 538 0
265 -266 538 0
-265 -266 -538 0
267 268 -539 0
-267 268 539 0
267 -268 539 0
-267 -268 -539 0
269 270 -540 0
-269 270 540 0
269 -270 540 0
-269 -270 -540 0
271 272 -541 0
-271 272 541 0
271 -272 541 0
-271 -272 -541 0
273 274 -542 0
-273 274 542 0
273 -274 542 0
-273 -274 -542 0
275 276 -543 0
-275 276 543 0
275 -276 543 0
-275 -276 -543 0
277 278 -544 0
-277 278 544 0
277 -278 544 0
-277 -278 -544 0
279 280 -545 0
-279 280 545 0
279 -280 545 0
-279 -280 -545 0
281 282 -546 0
-281 282 546 0
281 -282 546 0
-281 -282 -546 0
283 284 -547 0
-283 284 547 0
283 -284 547 0
-283 -284 -547 0
285 286 -548 0
-285 286 548 0
285 -286 548 0
-285 -286 -548 0
287 288 -549 0
-287 288 549 0
287 -288 549 0
-287 -288 -549 0
289 290 -550 0
-289 290 550 0
289 -290 550 0
-289 -290 -550 0
291 292 -551 0
-291 292 551 0
291 -292 551 0
-291 -292 -551 0
293 294 -552 0
-293 294 552 0
293 -294 552 0
-293 -294 -552 0
295 296 -553 0
-295 296 553 0
295 -296 553 0
-295 -296 -553 0
297 298 -554 0
-297 298 554 0
297 -298 554 0
-297 -298 -554 0
299 300 -555 0
-299 300 555 0
299 -300 555 0
-299 -300 -555 0
301 302 -556 0
-301 302 556 0
301 -302 556 0
-301 -302 -556 0
303 304 -557 0
-303 304 557 0
303 -304 557 0
-303 -304 -557 0
305 306 -558 0
-305 306 558 0
305 -306 558 0
-305 -306 -558 0
307 308 -559 0
-307 308 559 0
307 -308 559 0
-307 -308 -559 0
309 310 -560 0
-309 310 560 0
309 -310 560 0
-309 -310 -560 0
311 312 -561 0
-311 312 561 0
311 -312 561 0
-311 -312 -561 0
313 314 -562 0
-313 314 562 0
313 -314 562 0
-313 -314 -562 0
315 316 -563 0
-315 316 563 0
315 -316 563 0
-315 -316 -563 0
317 318 -564 0
-317 318 564 0
317 -318 564 0
-317 -318 -564 0
319 320 -565 0
-319 320 565 0
319 -320 565 0
-319 -320 -565 0
321 322 -566 0
-321 322 566 0
321 -322 566 0
-321 -322 -566 0
323 324 -567 0
-323 324 567 0
323 -324 567 0
-323 -324 -567 0
325 326 -568 0
-325 326 568 0
325 -326 568 0
-325 -326 -568 0
327 328 -569 0
-327 328 569 0
327 -328 569 0
-327 -328 -569 0
329 330 -570 0
-329 330 570 0
329 -330 570 0
-329 -330 -570 0
331 332 -571 0
-331 332 571 0
331 -332 571 0
-331 -332 -571 0
333 334 -572 0
-333 334 572 0
333 -334 572 0
-333 -334 -572 0
335 336 -573 0
-335 336 573 0
335 -336 573 0
-335 -336 -573 0
337 338 -574 0
-337 338 574 0
337 -338 574 0
-337 -338 -574 0
339 340 -575 0
-339 340 575 0
339 -340 575 0
-339 -340 -575 0
341 342 -576 0
-341 342 576 0
341 -342 576 0
-341 -342 -576 0
343 344 -577 0
-343 344 577 0
343 -344 577 0
-343 -344 -577 0
345 346 -578 0
-345 346 578 0
345 -346 578 0
-345 -346 -578 0
347 348 -579 0
-347 348 579 0
347 -348 579 0
-347 -348 -579 0
349 350 -580 0
-349 350 580 0
349 -350 580 0
-349 -350 -580 0
351 352 -581 0
-351 352 581 0
351 -352 581 0
-351 -352 -581 0
353 354 -582 0
-353 354 582 0
353 -354 582 0
-353 -354 -582 0
355 356 -583 0
-355 356 583 0
355 -356 583 0
-355 -356 -583 0
357 358 -584 0
-357 358 584 0
357 -358 584 0
-357 -358 -584 0
359 360 -585 0
-359 360 585 0
359 -360 585 0
-359 -360 -585 0
361 362 -586 0
-361 362 586 0
361 -362 586 0
-361 -362 -586 0
363 364 -587 0
-363 364 587 0
363 -364 587 0
-363 -364 -587 0
365 366 -588 0
-365 366 588 0
365 -366 588 0
-365 -366 -588 0
367 368 -589 0
-367 368 589 0
367 -368 589 0
-367 -368 -589 0
369 370 -590 0
-369 370 590 0
369 -370 590 0
-369 -370 -590 0
371 372 -591 0
-371 372 591 0
371 -372 591 0
-371 -372 -591 0
373 374 -592 0
-373 374 592 0
373 -374 592 0
-373 -374 -592 0
375 376 -593 0
-375 376 593 0
375 -376 593 0
-375 -376 -593 0
377 378 -594 0
-377 378 594 0
377 -378 594 0
-377 -378 -594 0
379 380 -595 0
-379 380 595 0
379 -380 595 0
-379 -380 -595 0
381 382 -596 0
-381 382 596 0
381 -382 596 0
-381 -382 -596 0
383 384 -597 0
-383 384 597 0
383 -384 597 0
-383 -384 -597 0
385 386 -598 0
-385 386 598 0
385 -386 598 0
-385 -386 -598 0
387 388 -599 0
-387 388 599 0
387 -388 599 0
-387 -388 -599 0
389 390 -600 0
-389 390 600 0
389 -390 600 0
-389 -390 -600 0
391 392 -601 0
-391 392 601 0
391 -392 601 0
-391 -392 -601 0
393 394 -602 0
-393 394 602 0
393 -394 602 0
-393 -394 -602 0
395 396 -603 0
-395 396 603 0
395 -396 603 0
-395 -396 -603 0
397 398 -604 0
-397 398 604 0
397 -398 604 0
-397 -398 -604 0
399 400 -605 0
-399 400 605 0
399 -400 605 0
-399 -400 -605 0
401 402 -606 0
-401 402 606 0
401 -402 606 0
-401 -402 -606 0
406 407 -607 0
-406 407 607 0
406 -407 607 0
-406 -407 -607 0
408 409 -608 0
-408 409 608 0
408 -409 608 0
-408 -409 -608 0
410 411 -609 0
-410 411 609 0
410 -411 609 0
-410 -411 -609 0
412 413 -610 0
-412 413 610 0
412 -413 610 0
-412 -413 -610 0
414 415 -611 0
-414 415 611 0
414 -415 611 0
-414 -415 -611 0
416 417 -612 0
-416 417 612 0
416 -417 612 0
-416 -417 -612 0
418 419 -613 0
-418 419 613 0
418 -419 613 0
-418 -419 -613 0
420 421 -614 0
-420 421 614 0
420 -421 614 0
-420 -421 -614 0
422 423 -615 0
-422 423 615 0
422 -423 615 0
-422 -423 -615 0
424 425 -616 0
-424 425 616 0
424 -425 616 0
-424 -425 -616 0
426 427 -617 0
-426 427 617 0
426 -427 617 0
-426 -427 -617 0
428 429 -618 0
-428 429 618 0
428 -429 618 0
-428 -429 -618 0
430 431 -619 0
-430 431 619 0
430 -431 619 0
-430 -431 -619 0
432 433 -620 0
-432 433 620 0
432 -433 620 0
-432 -433 -620 0
434 435 -621 0
-434 435 621 0
434 -435 621 0
-434 -435 -621 0
436 437 -622 0
-436 437 622 0
436 -437 622 0
-436 -437 -622 0
438 439 -623 0
-438 439 623 0
438 -439 623 0
-438 -439 -623 0
440 441 -624 0
-440 441 624 0
440 -441 624 0
-440 -441 -624 0
442 443 -625 0
-442 443 625 0
442 -443 625 0
-442 -443 -625 0
444 445 -626 0
-444 445 626 0
444 -445 626 0
-444 -445 -626 0
446 447 -627 0
-446 447 627 0
446 -447 627 0
-446 -447 -627 0
448 449 -628 0
-448 449 628 0
448 -449 628 0
-448 -449 -628 0
450 451 -629 0
-450 451 629 0
450 -451 629 0
-450 -451 -629 0
452 453 -630 0
-452 453 630 0
452 -453 630 0
-452 -453 -630 0
454 455 -631 0
-454 455 631 0
454 -455 631 0
-454 -455 -631 0
456 457 -632 0
-456 457 632 0
456 -457 632 0
-456 -457 -632 0
458 459 -633 0
-458 459 633 0
458 -459 633 0
-458 -459 -633 0
460 461 -634 0
-460 461 634 0
460 -461 634 0
-460 -461 -634 0
462 463 -635 0
-462 463 635 0
462 -463 635 0
-462 -463 -635 0
464 465 -636 0
-464 465 636 0
464 -465 636 0
-464 -465 -636 0
466 467 -637 0
-466 467 637 0
466 -467 637 0
-466 -467 -637 0
468 469 -638 0
-468 469 638 0
468 -469 638 0
-468 -469 -638 0
470 471 -639 0
-470 471 639 0
470 -471 639 0
-470 -471 -639 0
472 473 -640 0
-472 473 640 0
472 -473 640 0
-472 -473 -640 0
474 475 -641 0
-474 475 641 0
474 -475 641 0
-474 -475 -641 0
476 477 -642 0
-476 477 642 0
476 -477 642 0
-476 -477 -642 0
478 479 -643 0
-478 479 643 0
478 -479 643 0
-478 -479 -643 0
480 481 -644 0
-480 481 644 0
480 -481 644 0
-480 -481 -644 0
482 483 -645 0
-482 483 645 0
482 -483 645 0
-482 -483 -645 0
484 485 -646 0
-484 485 646 0
484 -485 646 0
-484 -485 -646 0
486 487 -647 0
-486 487 647 0
486 -487 647 0
-486 -487 -647 0
488 489 -648 0
-488 489 648 0
488 -489 648 0
-488 -489 -648 0
490 491 -649 0
-490 491 649 0
490 -491 649 0
-490 -491 -649 0
492 493 -650 0
-492 493 650 0
492 -493 650 0
-492 -493 -650 0
494 495 -651 0
-494 495 651 0
494 -495 651 0
-494 -495 -651 0
496 497 -652 0
-496 497 652 0
496 -497 652 0
-496 -497 -652 0
498 499 -653 0
-498 499 653 0
498 -499 653 0
-498 -499 -653 0
500 501 -654 0
-500 501 654 0
500 -501 654 0
-500 -501 -654 0
502 503 -655 0
-502 503 655 0
502 -503 655 0
-502 -503 -655 0
504 505 -656 0
-504 505 656 0
504 -505 656 0
-504 -505 -656 0
506 507 -657 0
-506 507 657 0
506 -507 657 0
-506 -507 -657 0
508 509 -658 0
-508 509 658 0
508 -509 658 0
-508 -509 -658 0
510 511 -659 0
-510 511 659 0
510 -511 659 0
-510 -511 -659 0
512 513 -660 0
-512 513 660 0
512 -513 660 0
-512 -513 -660 0
514 515 -661 0
-514 515 661 0
514 -515 661 0
-514 -515 -661 0
516 517 -662 0
-516 517 662 0
516 -517 662 0
-516 -517 -662 0
518 519 -663 0
-518 519 663 0
518 -519 663 0
-518 -519 -663 0
520 521 -664 0
-520 521 664 0
520 -521 664 0
-520 -521 -664 0
522 523 -665 0
-522 523 665 0
522 -523 665 0
-522 -523 -665 0
524 525 -666 0
-524 525 666 0
524 -525 666 0
-524 -525 -666 0
526 527 -667 0
-526 527 667 0
526 -527 667 0
-526 -527 -667 0
528 529 -668 0
-528 529 668 0
528 -529 668 0
-528 -529 -668 0
530 531 -669 0
-530 531 669 0
530 -531 669 0
-530 -531 -669 0
532 533 -670 0
-532 533 670 0
532 -533 670 0
-532 -533 -670 0
534 535 -671 0
-534 535 671 0
534 -535 671 0
-534 -535 -671 0
536 537 -672 0
-536 537 672 0
536 -537 672 0
-536 -537 -672 0
538 539 -673 0
-538 539 673 0
538 -539 673 0
-538 -539 -673 0
540 541 -674 0
-540 541 674 0
540 -541 674 0
-540 -541 -674 0
542 543 -675 0
-542 543 675 0
542 -543 675 0
-542 -543 -675 0
544 545 -676 0
-544 545 676 0
544 -545 676 0
-544 -545 -676 0
546 547 -677 0
-546 547 677 0
546 -547 677 0
-546 -547 -677 0
548 549 -678 0
-548 549 678 0
548 -549 678 0
-548 -549 -678 0
550 551 -679 0
-550 551 679 0
550 -551 679 0
-550 -551 -679 0
552 553 -680 0
-552 553 680 0
552 -553 680 0
-552 -553 -680 0
554 555 -681 0
-554 555 681 0
554 -555 681 0
-554 -555 -681 0
556 557 -682 0
-556 557 682 0
556 -557 682 0
-556 -557 -682 0
558 559 -683 0
-558 559 683 0
558 -559 683 0
-558 -559 -683 0
560 561 -684 0
-560 561 684 0
560 -561 684 0
-560 -561 -684 0
562 563 -685 0
-562 563 685 0
562 -563 685 0
-562 -563 -685 0
564 565 -686 0
-564 565 686 0
564 -565 686 0
-564 -565 -686 0
566 567 -687 0
-566 567 687 0
566 -567 687 0
-566 -567 -687 0
568 569 -688 0
-568 569 688 0
568 -569 688 0
-568 -569 -688 0
570 571 -689 0
-570 571 689 0
570 -571 689 0
-570 -571 -689 0
572 573 -690 0
-572 573 690 0
572 -573 690 0
-572 -573 -690 0
574 575 -691 0
-574 575 691 0
574 -575 691 0
-574 -575 -691 0
576 577 -692 0
-576 577 692 0
576 -577 692 0
-576 -577 -692 0
578 579 -693 0
-578 579 693 0
578 -579 693 0
-578 -579 -693 0
580 581 -694 0
-580 581 694 0
580 -581 694 0
-580 -581 -694 0
582 583 -695 0
-582 583 695 0
582 -583 695 0
-582 -583 -695 0
584 585 -696 0
-584 585 696 0
584 -585 696 0
-584 -585 -696 0
586 587 -697 0
-586 587 697 0
586 -587 697 0
-586 -587 -697 0
588 589 -698 0
-588 589 698 0
588 -589 698 0
-588 -589 -698 0
590 591 -699 0
-590 591 699 0
590 -591 699 0
-590 -591 -699 0
592 593 -700 0
-592 593 700 0
592 -593 700 0
-592 -593 -700 0
594 595 -701 0
-594 595 701 0
594 -595 701 0
-594 -595 -701 0
596 597 -702 0
-596 597 702 0
596 -597 702 0
-596 -597 -702 0
598 599 -703 0
-598 599 703 0
598 -599 703 0
-598 -599 -703 0
600 601 -704 0
-600 601 704 0
600 -601 704 0
-600 -601 -704 0
602 603 -705 0
-602 603 705 0
602 -603 705 0
-602 -603 -705 0
604 605 -706 0
-604 605 706 0
604 -605 706 0
-604 -605 -706 0
607 608 -707 0
-607 608 707 0
607 -608 707 0
-607 -608 -707 0
609 610 -708 0
-609 610 708 0
609 -610 708 0
-609 -610 -708 0
611 612 -709 0
-611 612 709 0
611 -612 709 0
-611 -612 -709 0
613 614 -710 0
-613 614 710 0
613 -614 710 0
-613 -614 -710 0
615 616 -711 0
-615 616 711 0
615 -616 711 0
-615 -616 -711 0
617 618 -712 0
-617 618 712 0
617 -618 712 0
-617 -618 -712 0
619 620 -713 0
-619 620 713 0
619 -620 713 0
-619 -620 -713 0
621 622 -714 0
-621 622 714 0
621 -622 714 0
-621 -622 -714 0
623 624 -715 0
-623 624 715 0
623 -624 715 0
-623 -624 -715 0
625 626 -716 0
-625 626 716 0
625 -626 716 0
-625 -626 -716 0
627 628 -717 0
-627 628 717 0
627 -628 717 0
-627 -628 -717 0
629 630 -718 0
-629 630 718 0
629 -630 718 0
-629 -630 -718 0
631 632 -719 0
-631 632 719 0
631 -632 719 0
-631 -632 -719 0
633 634 -720 0
-633 634 720 0
633 -634 720 0
-633 -634 -720 0
635 636 -721 0
-635 636 721 0
635 -636 721 0
-635 -636 -721 0
637 638 -722 0
-637 638 722 0
637 -638 722 0
-637 -638 -722 0
639 640 -723 0
-639 640 723 0
639 -640 723 0
-639 -640 -723 0
641 642 -724 0
-641 642 724 0
641 -642 724 0
-641 -642 -724 0
643 644 -725 0
-643 644 725 0
643 -644 725 0
-643 -644 -725 0
645 646 -726 0
-645 646 726 0
645 -646 726 0
-645 -646 -726 0
647 648 -727 0
-647 648 727 0
647 -648 727 0
-647 -648 -727 0
649 650 -728 0
-649 650 728 0
649 -650 728 0
-649 -650 -728 0
651 652 -729 0
-651 652 729 0
651 -652 729 0
-651 -652 -729 0
653 654 -730 0
-653 654 730 0
653 -654 730 0
-653 -654 -730 0
655 656 -731 0
-655 656 731 0
655 -656 731 0
-655 -656 -731 0
657 658 -732 0
-657 658 732 0
657 -658 732 0
-657 -658 -732 0
659 660 -733 0
-659 660 733 0
659 -660 733 0
-659 -660 -733 0
661 662 -734 0
-661 662 734 0
661 -662 734 0
-661 -662 -734 0
663 664 -735 0
-663 664 735 0
663 -664 735 0
-663 -664 -735 0
665 666 -736 0
-665 666 736 0
665 -666 736 0
-665 -666 -736 0
667 668 -737 0
-667 668 737 0
667 -668 737 0
-667 -668 -737 0
669 670 -738 0
-669 670 738 0
669 -670 738 0
-669 -670 -738 0
671 672 -739 0
-671 672 739 0
671 -672 739 0
-671 -672 -739 0
673 674 -740 0
-673 674 740 0
673 -674 740 0
-673 -674 -740 0
675 676 -741 0
-675 676 741 0
675 -676 741 0
-675 -676 -741 0
677 678 -742 0
-677 678 742 0
677 -678 742 0
-677 -678 -742 0
679 680 -743 0
-679 680 743 0
679 -680 743 0
-679 -680 -743 0
681 682 -744 0
-681 682 744 0
681 -682 744 0
-681 -682 -744 0
683 684 -745 0
-683 684 745 0
683 -684 745 0
-683 -684 -745 0
685 686 -746 0
-685 686 746 0
685 -686 746 0
-685 -686 -746 0
687 688 -747 0
-687 688 747 0
687 -688 747 0
-687 -688 -747 0
689 690 -748 0
-689 690 748 0
689 -690 748 0
-689 -690 -748 0
691 692 -749 0
-691 692 749 0
691 -692 749 0
-691 -692 -749 0
693 694 -750 0
-693 694 750 0
693 -694 750 0
-693 -694 -750 0
695 696 -751 0
-695 696 751 0
695 -696 751 0
-695 -696 -751 0
697 698 -752 0
-697 698 752 0
697 -698 752 0
-697 -698 -752 0
699 700 -753 0
-699 700 753 0
699 -700 753 0
-699 -700 -753 0
701 702 -754 0
-701 702 754 0
701 -702 754 0
-701 -702 -754 0
703 704 -755 0
-703 704 755 0
703 -704 755 0
-703 -704 -755 0
705 706 -756 0
-705 706 756 0
705 -706 756 0
-705 -706 -756 0
707 708 -757 0
-707 708 757 0
707 -708 757 0
-707 -708 -757 0
709 710 -758 0
-709 710 758 0
709 -710 758 0
-709 -710 -758 0
711 712 -759 0
-711 712 759 0
711 -712 759 0
-711 -712 -759 0
713 714 -760 0
-713 714 760 0
713 -714 760 0
-713 -714 -760 0
715 716 -761 0
-715 716 761 0
715 -716 761 0
-715 -716 -761 0
717 718 -762 0
-717 718 762 0
717 -718 762 0
-717 -718 -762 0
719 720 -763 0
-719 720 763 0
719 -720 763 0
-719 -720 -763 0
721 722 -764 0
-721 722 764 0
721 -722 764 0
-721 -722 -764 0
723 724 -765 0
-723 724 765 0
723 -724 765 0
-723 -724 -765 0
725 726 -766 0
-725 726 766 0
725 -726 766 0
-725 -726 -766 0
727 728 -767 0
-727 728 767 0
727 -728 767 0
-727 -728 -767 0
729 730 -768 0
-729 730 768 0
729 -730 768 0
-729 -730 -768 0
731 732 -769 0
-731 732 769 0
731 -732 769 0
-731 -732 -769 0
733 734 -770 0
-733 734 770 0
733 -734 770 0
-733 -734 -770 0
735 736 -771 0
-735 736 771 0
735 -736 771 0
-735 -736 -771 0
737 738 -772 0
-737 738 772 0
737 -738 772 0
-737 -738 -772 0
739 740 -773 0
-739 740 773 0
739 -740 773 0
-739 -740 -773 0
741 742 -774 0
-741 742 774 0
741 -742 774 0
-741 -742 -774 0
743 744 -775 0
-743 744 775 0
743 -744 775 0
-743 -744 -775 0
745 746 -776 0
-745 746 776 0
745 -746 776 0
-745 -746 -776 0
747 748 -777 0
-747 748 777 0
747 -748 777 0
-747 -748 -777 0
749 750 -778 0
-749 750 778 0
749 -750 778 0
-749 -750 -778 0
751 752 -779 0
-751 752 779 0
751 -752 779 0
-751 -752 -779 0
753 754 -780 0
-753 754 780 0
753 -754 780 0
-753 -754 -780 0
755 756 -781 0
-755 756 781 0
755 -756 781 0
-755 -756 -781 0
757 758 -782 0
-757 758 782 0
757 -758 782 0
-757 -758 -782 0
759 760 -783 0
-759 760 783 0
759 -760 783 0
-759 -760 -783 0
761 762 -784 0
-761 762 784 0
761 -762 784 0
-761 -762 -784 0
763 764 -785 0
-763 764 785 0
763 -764 785 0
-763 -764 -785 0
765 766 -786 0
-765 766 786 0
765 -766 786 0
-765 -766 -786 0
767 768 -787 0
-767 768 787 0
767 -768 787 0
-767 -768 -787 0
769 770 -788 0
-769 770 788 0
769 -770 788 0
-769 -770 -788 0
771 772 -789 0
-771 772 789 0
771 -772 789 0
-771 -772 -789 0
773 774 -790 0
-773 774 790 0
773 -774 790 0
-773 -774 -790 0
775 776 -791 0
-775 776 791 0
775 -776 791 0
-775 -776 -791 0
777 778 -792 0
-777 778 792 0
777 -778 792 0
-777 -778 -792 0
779 780 -793 0
-779 780 793 0
779 -780 793 0
-779 -780 -793 0
781 606 -794 0
-781 606 794 0
781 -606 794 0
-781 -606 -794 0
782 783 -795 0
-782 783 795 0
782 -783 795 0
-782 -783 -795 0
784 785 -796 0
-784 785 796 0
784 -785 796 0
-784 -785 -796 0
786 787 -797 0
-786 787 797 0
786 -787 797 0
-786 -787 -797 0
788 789 -798 0
-788 789 798 0
788 -789 798 0
-788 -789 -798 0
790 791 -799 0
-790 791 799 0
790 -791 799 0
-790 -791 -799 0
792 793 -800 0
-792 793 800 0
792 -793 800 0
-792 -793 -800 0
795 796 -801 0
-795 796 801 0
795 -796 801 0
-795 -796 -801 0
797 798 -802 0
-797 798 802 0
797 -798 802 0
-797 -798 -802 0
799 800 -803 0
-799 800 803 0
799 -800 803 0
-799 -800 -803 0
801 802 -804 0
-801 802 804 0
801 -802 804 0
-801 -802 -804 0
803 794 -805 0
-803 794 805 0
803 -794 805 0
-803 -794 -805 0
804 805 -403 0
-804 805 403 0
804 -805 403 0
-804 -805 -403 0
